unsat
(define-fun f ((x (_ BitVec 64))) (_ BitVec 64) (im (bvand #b0000000000000000000000000000000000000000000000000000000000000001 (shesh x)) (bvnot (bvxor #b0000000000000000000000000000000000000000000000000000000000000001 x)) (smol (ehad x))))
0.36user 0.03system 0:00.39elapsed 99%CPU (0avgtext+0avgdata 58624maxresident)k
0inputs+8outputs (0major+9375minor)pagefaults 0swaps
